p tw 26 521 15 
1 18 
1 21 
1 24 
2 16 
2 19 
2 22 
2 24 
3 17 
3 20 
3 23 
3 24 
4 15 
4 20 
4 22 
4 25 
5 16 
5 18 
5 23 
5 25 
6 17 
6 19 
6 21 
6 25 
7 15 
7 19 
7 23 
7 26 
8 16 
8 20 
8 21 
8 26 
9 17 
9 18 
9 22 
9 26 
10 14 
10 15 
10 16 
10 17 
11 14 
11 18 
11 19 
11 20 
12 14 
12 21 
12 22 
12 23 
13 14 
13 24 
13 25 
13 26 
